c 
c G(k,n,p) graph
c graph gen seed     : 232
c number of vertices : 25
c max number of edges: 500
c number of classes  : 2
c edge density       : 0.400000
c edge probability   : 0.800000
c data structure     : sparse
c
c           Graph Stats
c number of vertices  : 25
c nonisolated vertices: 25
c number of edges     : 124
c edge density        : 0.413333
c max degree          : 14
c avg degree          : 9.92
c min degree          : 6
p col 25 124
e 1 25
e 1 20
e 1 19
e 1 16
e 1 13
e 1 11
e 1 10
e 1 9
e 1 8
e 1 7
e 1 6
e 1 2
e 2 24
e 2 23
e 2 18
e 2 17
e 2 15
e 2 14
e 2 4
e 3 25
e 3 22
e 3 21
e 3 16
e 3 13
e 3 12
e 3 11
e 3 10
e 3 8
e 3 7
e 3 6
e 4 25
e 4 22
e 4 21
e 4 20
e 4 19
e 4 16
e 4 12
e 4 11
e 4 10
e 4 9
e 4 8
e 4 7
e 4 6
e 5 25
e 5 22
e 5 21
e 5 20
e 5 19
e 5 16
e 5 13
e 5 12
e 5 11
e 5 10
e 5 9
e 5 8
e 5 7
e 5 6
e 6 18
e 6 17
e 6 14
e 7 24
e 7 18
e 7 17
e 7 15
e 7 14
e 8 24
e 8 23
e 8 18
e 8 17
e 8 15
e 8 14
e 9 24
e 9 23
e 9 18
e 9 17
e 9 15
e 9 14
e 10 24
e 10 23
e 10 18
e 10 17
e 10 15
e 10 14
e 11 24
e 11 18
e 11 15
e 12 24
e 12 18
e 12 17
e 12 15
e 13 24
e 13 18
e 13 17
e 13 15
e 13 14
e 14 25
e 14 22
e 14 21
e 14 20
e 15 25
e 15 21
e 15 20
e 15 16
e 16 24
e 16 23
e 16 18
e 16 17
e 17 25
e 17 21
e 17 20
e 17 19
e 18 25
e 18 21
e 18 20
e 18 19
e 19 24
e 19 23
e 20 24
e 20 23
e 21 24
e 21 23
e 22 24
e 22 23
e 24 25
